32 33 34 24 25 29 30 31
3 4 5 6 10 12 13 15
16 1 3 4 5 6 8 12
16 1 2 4 5 6 10 12
16 1 2 3 5 6 8 12
1 2 3 4 6 10 12 15
16 1 2 3 4 5 10 12
8 9 10 11 12 13 14 15
4 7 9 10 11 12 13 14
2 4 7 8 11 12 13 14
1 4 5 8 12 13 14 15
2 4 7 8 9 12 13 14
1 2 3 4 8 10 11 13
1 4 7 8 10 11 12 14
1 7 8 10 11 12 13 15
1 3 5 8 10 12 13 14
1 2 3 4 5 6 9 12
18 20 22 23 24 26 27 29
17 20 22 23 26 27 28 29
32 17 21 22 24 25 27 29
17 18 22 23 26 27 28 29
32 17 19 22 24 25 27 29
17 18 20 23 26 27 28 29
17 18 20 22 26 27 28 29
32 17 19 21 22 25 27 29
32 17 19 21 22 24 27 29
17 18 20 22 23 27 28 29
17 19 20 21 22 24 25 29
17 18 20 22 23 26 27 29
32 17 20 22 24 25 26 27
0 32 33 34 7 11 29 31
0 33 34 7 9 11 14 30
0 17 19 22 24 25 27 29
0 34 7 9 11 14 30 31
0 32 33 7 24 29 30 31
